Translating instance to solver...

GLPSOL: GLPK LP/MIP Solver, v4.65
Parameter(s) specified in the command line:
 --tmlim 120 --mipgap 0.01 --write C:\Users\LUCASP~1\AppData\Local\Temp\tmpbo69b_71.glpk.raw
 --wglp C:\Users\LUCASP~1\AppData\Local\Temp\tmp4mssjidn.glpk.glp --cpxlp
 C:\Users\LUCASP~1\AppData\Local\Temp\tmplq6gtvmr.pyomo.lp
Reading problem data from 'C:\Users\LUCASP~1\AppData\Local\Temp\tmplq6gtvmr.pyomo.lp'...
C:\Users\LUCASP~1\AppData\Local\Temp\tmplq6gtvmr.pyomo.lp:51226: warning: lower bound of variable 'x2' redefined
C:\Users\LUCASP~1\AppData\Local\Temp\tmplq6gtvmr.pyomo.lp:51226: warning: upper bound of variable 'x2' redefined
8216 rows, 5232 columns, 21293 non-zeros
5232 integer variables, 5220 of which are binary
56446 lines were read
Writing problem data to 'C:\Users\LUCASP~1\AppData\Local\Temp\tmp4mssjidn.glpk.glp'...
39343 lines were written
GLPK Integer Optimizer, v4.65
8216 rows, 5232 columns, 21293 non-zeros
5232 integer variables, 5220 of which are binary
Preprocessing...
126 hidden packing inequaliti(es) were detected
966 hidden covering inequaliti(es) were detected
96 constraint coefficient(s) were reduced
4680 rows, 2453 columns, 12755 non-zeros
2453 integer variables, 2442 of which are binary
Scaling...
 A: min|aij| =  1.000e+00  max|aij| =  1.900e+01  ratio =  1.900e+01
GM: min|aij| =  4.956e-01  max|aij| =  2.018e+00  ratio =  4.071e+00
EQ: min|aij| =  2.854e-01  max|aij| =  1.000e+00  ratio =  3.504e+00
2N: min|aij| =  2.500e-01  max|aij| =  1.375e+00  ratio =  5.500e+00
Constructing initial basis...
Size of triangular part is 4680
Solving LP relaxation...
GLPK Simplex Optimizer, v4.65
4680 rows, 2453 columns, 12755 non-zeros
      0: obj =   0.000000000e+00 inf =   1.063e+02 (101)
Perturbing LP to avoid stalling [200]...
    595: obj =   4.014898241e+00 inf =   3.273e-08 (0) 3
Removing LP perturbation [1058]...
*  1058: obj =   2.057162206e+00 inf =   6.174e-15 (0) 3
OPTIMAL LP SOLUTION FOUND
Integer optimization begins...
Long-step dual simplex will be used
+  1058: mip =     not found yet >=              -inf        (1; 0)
+  3088: mip =     not found yet >=   2.140517364e+00        (74; 2)
+  4890: >>>>>   3.335544000e+00 >=   2.140564921e+00  35.8% (173; 3)
+  6772: mip =   3.335544000e+00 >=   2.147079942e+00  35.6% (236; 57)
+  9189: mip =   3.335544000e+00 >=   2.158343793e+00  35.3% (300; 62)
+ 11586: mip =   3.335544000e+00 >=   2.165606000e+00  35.1% (395; 69)
+ 14723: mip =   3.335544000e+00 >=   2.208291331e+00  33.8% (463; 77)
+ 17567: mip =   3.335544000e+00 >=   2.265417106e+00  32.1% (556; 93)
+ 20205: mip =   3.335544000e+00 >=   2.273762000e+00  31.8% (677; 105)
+ 22814: mip =   3.335544000e+00 >=   2.279323655e+00  31.7% (772; 113)
+ 27026: mip =   3.335544000e+00 >=   2.285940000e+00  31.5% (900; 135)
+ 32706: mip =   3.335544000e+00 >=   2.298606897e+00  31.1% (1027; 161)
+ 44857: mip =   3.335544000e+00 >=   2.304681572e+00  30.9% (1153; 245)
Time used: 60.0 secs.  Memory used: 15.1 Mb.
+ 50172: mip =   3.335544000e+00 >=   2.307659273e+00  30.8% (1307; 287)
+ 54431: mip =   3.335544000e+00 >=   2.313748273e+00  30.6% (1430; 315)
+ 61783: mip =   3.335544000e+00 >=   2.355210909e+00  29.4% (1551; 369)
+ 63595: mip =   3.335544000e+00 >=   2.367480386e+00  29.0% (1623; 375)
+ 70565: mip =   3.335544000e+00 >=   2.391985364e+00  28.3% (1652; 432)
+ 71580: >>>>>   3.029653000e+00 >=   2.398287691e+00  20.8% (1691; 435)
+ 74897: mip =   3.029653000e+00 >=   2.422203732e+00  20.1% (1538; 879)
+ 80221: mip =   3.029653000e+00 >=   2.460757687e+00  18.8% (1783; 934)
+ 84251: mip =   3.029653000e+00 >=   2.481077870e+00  18.1% (1900; 958)
+ 87180: mip =   3.029653000e+00 >=   2.499629000e+00  17.5% (2004; 996)
+ 89386: mip =   3.029653000e+00 >=   2.505747444e+00  17.3% (2146; 1016)
+ 93025: mip =   3.029653000e+00 >=   2.523613750e+00  16.7% (2237; 1030)
Time used: 120.0 secs.  Memory used: 23.5 Mb.
+ 96024: mip =   3.029653000e+00 >=   2.543042700e+00  16.1% (2274; 1081)
TIME LIMIT EXCEEDED; SEARCH TERMINATED
Time used:   120.2 secs
Memory used: 24.7 Mb (25849915 bytes)
Writing MIP solution to 'C:\Users\LUCASP~1\AppData\Local\Temp\tmpbo69b_71.glpk.raw'...
13457 lines were written

Results:

E = 3.0296529999999997 mA
C = 84.0 points
C ~= 33.6 km^2

Minimum Epsilon for this instance = 28
Maximum Epsilon for this instance = 86
Current Epsilon = 84

Instance Maximum Epsilon Preprocessing Time: 0.0019991397857666016 s

Time in solver (for this epsilon): 120.33135962486267 s
Elapsed time (for this epsilon): 121.00321745872498 s


Total elapsed time since execution of first epsilon: 168.20065903663635 s
